RAW/XQ/fspd-mid/X-n139-k10.vrp_seed-4.out
12106	33.108	194.851
