RAW/XQ/fspd-mid/X-n139-k10.vrp_seed-4.sol
Route #1: 16 32 118 85 24 114 137 22 112 25 125 36 2 99 87 52 126 95
Route #2: 98 54 75 133 64 127 130 93 132 107 92 41 80 78 120 73 121 79
Route #3: 122 138 21 1 18 55 46 43 77 106 82 105 111 76 56
Route #4: 88 70 123 27 115 34 131 38 69 94 108 26 9 23 4 62 124
Route #5: 89 104 63 28 103 136 83 68 116 101 11 128 119 47 17 37 40 134 102 71
Route #6: 20 45 110 35 58 13 97 31 50 74 10 109
Route #7: 3 7 84 51 39 15 60 59 42 67 100 14 135 33 86 81 91
Route #8: 29 57 44 72 117 49 129 53 96 5 6 113 90 12 66 19 61 48 65 8 30
Cost 12106.000000